n = 15
m = 15
c = 10

problem 1
---------
 0 0 0 1 0 0 1 1 1 0 1 1 1 1 1
 0 1 1 1 1 0 0 1 0 1 0 1 1 1 1
 0 1 0 1 1 0 1 1 0 1 0 0 0 1 0
 1 0 1 0 1 1 0 1 1 0 0 0 0 0 1
 0 0 0 0 1 0 1 0 0 1 1 1 1 0 1
 1 1 1 1 0 0 0 0 0 0 0 0 0 1 0
 0 1 1 1 0 0 0 0 0 0 1 0 0 0 0
 1 0 1 1 0 1 0 0 0 0 0 1 1 1 1
 0 0 0 1 0 1 1 1 0 1 0 0 0 0 1
 1 0 0 0 1 0 0 0 1 0 0 0 1 0 1
 1 1 0 0 0 0 0 0 0 1 1 1 0 0 0
 0 1 0 0 1 0 1 0 1 1 0 0 1 1 1
 1 1 0 1 0 1 1 0 0 1 1 0 1 1 0
 1 0 1 1 0 1 0 1 0 0 1 1 1 1 1
 0 0 0 0 0 0 1 1 1 0 1 0 0 0 0

problem 2
---------
 0 0 0 0 0 0 0 0 1 1 1 0 1 0 1
 1 0 0 0 1 1 1 0 0 1 1 1 0 1 0
 1 1 1 1 1 1 0 1 0 1 1 1 0 0 0
 1 1 1 1 0 1 1 1 1 1 0 1 1 1 1
 1 0 1 0 1 1 1 0 1 0 1 1 0 1 1
 1 0 1 0 0 1 1 0 1 1 1 1 1 0 0
 0 1 1 1 0 1 1 0 1 1 1 0 0 1 0
 1 1 1 0 1 0 0 0 0 0 1 0 0 0 1
 0 0 1 1 1 0 1 1 1 0 0 1 1 0 1
 0 1 1 1 0 0 1 1 1 1 0 0 0 1 0
 1 0 0 0 0 1 1 0 0 0 1 0 1 1 0
 1 0 1 0 0 1 0 1 1 1 1 1 1 0 0
 1 1 0 0 1 1 0 1 1 1 1 0 1 0 0
 0 0 0 0 1 1 0 1 0 0 0 0 0 0 0
 1 0 0 1 1 0 0 0 1 0 0 1 0 1 0

problem 3
---------
 1 0 1 0 0 0 1 0 0 0 0 1 0 1 0
 1 0 0 0 1 0 1 0 1 0 1 1 1 0 1
 0 0 1 1 0 1 0 1 0 0 1 1 0 0 0
 1 0 1 1 0 1 1 1 0 0 1 0 0 1 1
 0 0 1 1 0 1 1 0 1 0 1 1 0 1 0
 1 0 0 0 1 0 0 0 0 1 1 0 1 1 0
 0 1 0 0 0 0 0 1 1 1 0 0 0 0 1
 1 1 1 1 1 1 1 0 1 1 1 0 0 0 1
 0 1 0 1 0 1 1 0 1 0 1 1 0 0 1
 1 1 1 1 1 1 1 0 0 0 1 0 1 0 0
 1 0 1 0 0 1 0 0 1 1 0 0 1 1 1
 1 1 1 1 0 1 0 0 1 0 0 1 0 1 0
 0 0 1 0 1 0 0 1 0 1 0 1 1 1 0
 0 1 0 0 0 1 1 0 0 1 1 0 0 1 0
 0 0 1 1 1 0 1 1 1 1 1 1 1 1 0

problem 4
---------
 0 0 0 0 1 0 0 0 0 1 1 0 1 1 0
 1 0 0 1 1 0 1 1 1 1 1 0 1 0 0
 1 0 0 1 1 1 0 0 1 0 1 1 0 0 0
 0 1 1 0 1 0 0 1 0 1 0 0 1 0 0
 0 0 0 1 1 0 0 1 0 1 0 0 0 0 1
 0 0 1 0 0 1 0 0 1 1 0 0 0 1 0
 0 0 0 1 0 0 1 1 1 0 1 1 0 1 1
 0 1 1 0 0 0 0 1 0 1 0 1 1 0 0
 0 1 1 0 1 1 0 0 1 1 1 0 0 0 1
 1 1 1 0 0 1 1 1 1 1 0 0 1 1 1
 0 0 0 1 0 1 1 1 0 1 1 0 0 1 0
 1 0 0 0 0 1 1 1 1 0 0 1 0 1 1
 1 0 0 1 1 0 1 0 0 0 0 1 0 0 0
 0 1 0 0 1 1 0 1 1 1 0 1 0 1 0
 0 1 1 1 1 1 0 1 1 0 0 1 1 0 0

problem 5
---------
 1 0 0 1 1 1 1 1 1 1 1 1 0 1 0
 0 0 0 1 1 0 0 0 1 1 0 1 1 1 1
 1 1 0 0 0 0 1 0 0 1 1 1 1 1 1
 0 1 0 0 0 1 0 0 1 1 0 1 0 1 1
 0 1 1 1 1 0 1 0 0 0 1 0 0 0 0
 1 0 1 1 1 0 1 1 0 0 1 1 1 0 0
 0 0 1 1 0 1 1 0 1 0 0 1 0 1 0
 1 1 0 1 1 1 0 0 0 1 1 0 1 0 0
 0 1 0 1 1 0 0 1 0 0 0 1 0 0 0
 1 1 1 1 1 0 0 1 0 0 1 0 0 0 1
 1 1 0 1 1 0 1 1 1 0 0 1 0 1 1
 1 0 1 0 1 0 1 1 0 0 0 0 1 1 0
 1 0 1 0 1 1 1 1 0 1 0 0 0 0 1
 0 0 0 1 0 0 0 1 1 1 1 0 1 1 0
 0 1 0 0 0 0 1 0 1 1 1 1 0 0 0

problem 6
---------
 1 1 1 1 0 0 1 1 1 1 0 0 0 0 1
 0 1 1 0 1 1 1 0 1 1 1 1 1 1 1
 1 1 0 1 0 1 0 1 0 1 0 1 1 1 1
 0 1 0 1 1 0 0 0 1 0 1 1 0 1 0
 0 0 0 1 1 1 0 1 1 1 0 0 1 0 1
 1 0 0 0 1 0 1 1 1 1 1 0 0 0 0
 0 1 0 1 1 1 1 0 0 1 1 1 1 1 1
 0 1 1 0 1 0 0 1 0 0 0 1 0 1 0
 0 1 1 0 0 1 1 0 1 1 1 1 0 0 0
 0 0 0 1 1 1 1 0 0 1 0 0 1 0 1
 0 0 0 0 1 1 1 1 0 1 1 1 0 1 1
 0 0 1 1 1 1 1 0 1 0 1 1 1 0 1
 0 0 1 1 1 0 0 0 1 0 1 0 0 1 1
 1 0 0 0 0 0 1 1 1 0 1 0 1 1 1
 1 1 0 1 0 1 0 0 1 0 1 1 1 0 0

problem 7
---------
 1 1 1 1 0 0 1 1 0 1 0 1 1 1 0
 1 1 1 1 1 0 0 1 0 1 1 1 0 0 0
 1 0 0 1 1 0 1 0 1 1 1 0 0 0 1
 0 0 0 0 1 0 0 0 0 1 0 1 1 0 0
 0 1 0 0 0 0 0 0 1 1 0 1 1 0 0
 0 0 0 0 1 1 1 0 0 1 0 1 1 0 1
 0 0 0 1 1 0 1 1 0 1 1 0 1 1 0
 1 0 0 1 0 1 0 1 1 1 1 0 0 1 0
 0 0 1 1 0 0 1 1 1 0 1 0 1 0 1
 1 0 0 1 1 1 1 1 1 1 1 1 0 1 1
 1 1 1 0 0 1 0 0 0 1 1 1 1 1 1
 1 0 0 1 1 0 0 1 0 0 0 0 1 0 0
 0 0 0 0 1 1 1 0 0 0 1 0 0 0 1
 1 1 1 1 1 0 0 1 0 0 0 0 0 0 1
 1 0 0 0 1 0 1 1 1 0 1 1 1 1 0

problem 8
---------
 0 0 1 1 1 0 1 1 1 1 1 1 1 0 0
 0 0 0 0 0 1 1 0 1 1 1 1 0 1 0
 1 0 1 1 0 1 1 0 1 1 1 0 1 0 1
 0 1 1 1 0 1 0 0 1 0 1 0 0 0 1
 1 1 0 0 1 0 0 1 1 1 0 1 0 1 1
 1 0 1 0 1 0 1 1 0 1 0 1 0 1 1
 1 0 1 0 0 0 0 1 0 1 1 1 0 1 0
 1 1 1 0 1 0 1 0 0 1 1 0 1 1 1
 0 0 0 1 1 0 1 0 0 0 1 0 0 1 0
 0 0 1 1 0 1 1 1 1 1 0 1 1 1 1
 0 0 1 0 1 1 1 1 0 0 1 0 0 1 0
 1 1 1 1 1 1 1 1 1 0 1 1 0 1 1
 0 1 0 0 0 0 0 0 1 0 0 0 1 0 0
 0 0 1 1 0 0 0 0 1 1 0 1 0 1 1
 0 1 0 1 1 0 1 1 1 0 1 0 0 0 0

problem 9
---------
 1 0 1 1 1 1 1 1 1 0 1 1 0 1 1
 1 1 0 0 0 1 0 0 1 0 1 1 1 0 0
 1 1 0 1 0 0 0 0 0 1 1 1 1 1 0
 1 0 0 1 1 1 1 1 1 1 1 1 1 0 0
 1 0 1 0 0 1 1 0 0 1 1 0 0 0 1
 1 0 1 0 0 1 1 1 1 1 0 0 0 0 0
 0 1 1 0 0 0 1 0 1 1 0 1 0 1 1
 0 1 0 0 0 1 0 1 0 1 0 0 0 1 0
 1 0 1 1 0 0 1 0 0 0 0 1 0 1 0
 0 1 1 0 1 1 1 1 1 1 1 0 0 1 1
 0 0 0 1 1 1 0 1 0 1 1 0 1 1 1
 1 0 1 1 0 1 1 1 0 1 0 0 1 0 0
 0 0 1 0 0 1 0 0 0 0 1 1 0 0 0
 1 0 1 1 1 0 1 0 0 1 0 1 1 1 0
 0 1 1 1 1 0 1 1 1 0 1 1 1 0 1

problem 10
---------
 1 0 0 0 0 1 1 0 0 0 1 1 1 0 0
 1 1 1 1 0 0 0 1 1 0 1 1 1 0 0
 0 1 1 0 0 1 0 1 0 0 0 0 0 1 0
 1 1 0 1 0 0 0 0 1 0 1 0 1 0 1
 0 1 0 1 1 1 1 0 1 0 1 0 1 1 0
 0 0 1 1 1 1 1 1 0 1 0 0 1 0 1
 0 1 0 0 0 1 1 1 0 1 0 0 1 0 1
 1 1 1 0 0 0 0 0 1 1 1 0 0 0 1
 0 0 1 0 0 1 0 1 0 0 1 1 1 1 0
 1 1 1 1 1 0 1 1 1 1 1 0 0 1 0
 1 0 1 0 1 0 0 1 1 1 1 0 0 1 0
 0 0 1 1 0 0 1 0 0 1 1 1 1 0 1
 0 1 0 0 1 0 1 1 1 0 0 0 0 1 1
 0 0 1 1 1 1 1 1 1 0 1 1 0 0 0
 1 1 0 1 0 1 0 0 0 0 0 1 1 1 1
